; benchmark generated from python API
(set-info :status unknown)
(declare-fun cell_1_3 () Int)
(declare-fun cell_1_6 () Int)
(declare-fun cell_2_6 () Int)
(declare-fun cell_2_8 () Int)
(declare-fun cell_3_3 () Int)
(declare-fun cell_3_9 () Int)
(declare-fun cell_4_4 () Int)
(declare-fun cell_4_5 () Int)
(declare-fun cell_5_1 () Int)
(declare-fun cell_5_8 () Int)
(declare-fun cell_6_1 () Int)
(declare-fun cell_7_4 () Int)
(declare-fun cell_8_2 () Int)
(declare-fun cell_9_7 () Int)
(declare-fun cell_1_1 () Int)
(declare-fun cell_2_1 () Int)
(declare-fun cell_3_1 () Int)
(declare-fun cell_4_1 () Int)
(declare-fun cell_7_1 () Int)
(declare-fun cell_8_1 () Int)
(declare-fun cell_9_1 () Int)
(declare-fun cell_1_2 () Int)
(declare-fun cell_2_2 () Int)
(declare-fun cell_3_2 () Int)
(declare-fun cell_4_2 () Int)
(declare-fun cell_5_2 () Int)
(declare-fun cell_6_2 () Int)
(declare-fun cell_7_2 () Int)
(declare-fun cell_9_2 () Int)
(declare-fun cell_2_3 () Int)
(declare-fun cell_4_3 () Int)
(declare-fun cell_5_3 () Int)
(declare-fun cell_6_3 () Int)
(declare-fun cell_7_3 () Int)
(declare-fun cell_8_3 () Int)
(declare-fun cell_9_3 () Int)
(declare-fun cell_1_4 () Int)
(declare-fun cell_2_4 () Int)
(declare-fun cell_3_4 () Int)
(declare-fun cell_5_4 () Int)
(declare-fun cell_6_4 () Int)
(declare-fun cell_8_4 () Int)
(declare-fun cell_9_4 () Int)
(declare-fun cell_1_5 () Int)
(declare-fun cell_2_5 () Int)
(declare-fun cell_3_5 () Int)
(declare-fun cell_5_5 () Int)
(declare-fun cell_6_5 () Int)
(declare-fun cell_7_5 () Int)
(declare-fun cell_8_5 () Int)
(declare-fun cell_9_5 () Int)
(declare-fun cell_3_6 () Int)
(declare-fun cell_4_6 () Int)
(declare-fun cell_5_6 () Int)
(declare-fun cell_6_6 () Int)
(declare-fun cell_7_6 () Int)
(declare-fun cell_8_6 () Int)
(declare-fun cell_9_6 () Int)
(declare-fun cell_1_7 () Int)
(declare-fun cell_2_7 () Int)
(declare-fun cell_3_7 () Int)
(declare-fun cell_4_7 () Int)
(declare-fun cell_5_7 () Int)
(declare-fun cell_6_7 () Int)
(declare-fun cell_7_7 () Int)
(declare-fun cell_8_7 () Int)
(declare-fun cell_1_8 () Int)
(declare-fun cell_3_8 () Int)
(declare-fun cell_4_8 () Int)
(declare-fun cell_6_8 () Int)
(declare-fun cell_7_8 () Int)
(declare-fun cell_8_8 () Int)
(declare-fun cell_9_8 () Int)
(declare-fun cell_1_9 () Int)
(declare-fun cell_2_9 () Int)
(declare-fun cell_4_9 () Int)
(declare-fun cell_5_9 () Int)
(declare-fun cell_6_9 () Int)
(declare-fun cell_7_9 () Int)
(declare-fun cell_8_9 () Int)
(declare-fun cell_9_9 () Int)
(assert
 (= cell_1_3 1))
(assert
 (= cell_1_6 2))
(assert
 (= cell_2_6 1))
(assert
 (= cell_2_8 2))
(assert
 (= cell_3_3 2))
(assert
 (= cell_3_9 1))
(assert
 (= cell_4_4 2))
(assert
 (= cell_4_5 1))
(assert
 (= cell_5_1 2))
(assert
 (= cell_5_8 1))
(assert
 (= cell_6_1 1))
(assert
 (= cell_7_4 1))
(assert
 (= cell_8_2 1))
(assert
 (= cell_9_7 1))
(assert
 (let (($x1046 (= cell_1_1 9)))
 (let (($x1185 (= cell_1_1 8)))
 (let (($x2201 (= cell_1_1 7)))
 (let (($x2078 (= cell_1_1 6)))
 (let (($x291 (= cell_1_1 5)))
 (let (($x2960 (= cell_1_1 4)))
 (let (($x1300 (= cell_1_1 3)))
 (let (($x216 (= cell_1_1 2)))
 (let (($x1417 (= cell_1_1 1)))
 (or $x1417 $x216 $x1300 $x2960 $x291 $x2078 $x2201 $x1185 $x1046)))))))))))
(assert
 (let (($x100 (= cell_2_1 9)))
 (let (($x1275 (= cell_2_1 8)))
 (let (($x1158 (= cell_2_1 7)))
 (let (($x1272 (= cell_2_1 6)))
 (let (($x1053 (= cell_2_1 5)))
 (let (($x2716 (= cell_2_1 4)))
 (let (($x581 (= cell_2_1 3)))
 (let (($x2905 (= cell_2_1 2)))
 (let (($x2139 (= cell_2_1 1)))
 (or $x2139 $x2905 $x581 $x2716 $x1053 $x1272 $x1158 $x1275 $x100)))))))))))
(assert
 (let (($x1918 (= cell_3_1 9)))
 (let (($x770 (= cell_3_1 8)))
 (let (($x2604 (= cell_3_1 7)))
 (let (($x319 (= cell_3_1 6)))
 (let (($x1941 (= cell_3_1 5)))
 (let (($x2040 (= cell_3_1 4)))
 (let (($x2450 (= cell_3_1 3)))
 (let (($x2457 (= cell_3_1 2)))
 (let (($x1522 (= cell_3_1 1)))
 (or $x1522 $x2457 $x2450 $x2040 $x1941 $x319 $x2604 $x770 $x1918)))))))))))
(assert
 (let (($x1847 (= cell_4_1 9)))
 (let (($x2472 (= cell_4_1 8)))
 (let (($x1950 (= cell_4_1 7)))
 (let (($x1619 (= cell_4_1 6)))
 (let (($x1617 (= cell_4_1 5)))
 (let (($x585 (= cell_4_1 4)))
 (let (($x1130 (= cell_4_1 3)))
 (let (($x769 (= cell_4_1 2)))
 (let (($x1405 (= cell_4_1 1)))
 (or $x1405 $x769 $x1130 $x585 $x1617 $x1619 $x1950 $x2472 $x1847)))))))))))
(assert
 (let (($x2190 (= cell_5_1 2)))
 (or (= cell_5_1 1) $x2190 (= cell_5_1 3) (= cell_5_1 4) (= cell_5_1 5) (= cell_5_1 6) (= cell_5_1 7) (= cell_5_1 8) (= cell_5_1 9))))
(assert
 (let (($x60 (= cell_6_1 1)))
 (or $x60 (= cell_6_1 2) (= cell_6_1 3) (= cell_6_1 4) (= cell_6_1 5) (= cell_6_1 6) (= cell_6_1 7) (= cell_6_1 8) (= cell_6_1 9))))
(assert
 (let (($x262 (= cell_7_1 9)))
 (let (($x2498 (= cell_7_1 8)))
 (let (($x705 (= cell_7_1 7)))
 (let (($x1147 (= cell_7_1 6)))
 (let (($x2632 (= cell_7_1 5)))
 (let (($x983 (= cell_7_1 4)))
 (let (($x2954 (= cell_7_1 3)))
 (let (($x2165 (= cell_7_1 2)))
 (let (($x532 (= cell_7_1 1)))
 (or $x532 $x2165 $x2954 $x983 $x2632 $x1147 $x705 $x2498 $x262)))))))))))
(assert
 (let (($x817 (= cell_8_1 9)))
 (let (($x2910 (= cell_8_1 8)))
 (let (($x3170 (= cell_8_1 7)))
 (let (($x1802 (= cell_8_1 6)))
 (let (($x1456 (= cell_8_1 5)))
 (let (($x82 (= cell_8_1 4)))
 (let (($x1335 (= cell_8_1 3)))
 (let (($x1203 (= cell_8_1 2)))
 (let (($x159 (= cell_8_1 1)))
 (or $x159 $x1203 $x1335 $x82 $x1456 $x1802 $x3170 $x2910 $x817)))))))))))
(assert
 (let (($x456 (= cell_9_1 9)))
 (let (($x3134 (= cell_9_1 8)))
 (let (($x1841 (= cell_9_1 7)))
 (let (($x995 (= cell_9_1 6)))
 (let (($x210 (= cell_9_1 5)))
 (let (($x2642 (= cell_9_1 4)))
 (let (($x999 (= cell_9_1 3)))
 (let (($x601 (= cell_9_1 2)))
 (let (($x1983 (= cell_9_1 1)))
 (or $x1983 $x601 $x999 $x2642 $x210 $x995 $x1841 $x3134 $x456)))))))))))
(assert
 (let (($x289 (= cell_1_2 9)))
 (let (($x932 (= cell_1_2 8)))
 (let (($x142 (= cell_1_2 7)))
 (let (($x918 (= cell_1_2 6)))
 (let (($x129 (= cell_1_2 5)))
 (let (($x2253 (= cell_1_2 4)))
 (let (($x3750 (= cell_1_2 3)))
 (let (($x2287 (= cell_1_2 2)))
 (let (($x2701 (= cell_1_2 1)))
 (or $x2701 $x2287 $x3750 $x2253 $x129 $x918 $x142 $x932 $x289)))))))))))
(assert
 (let (($x517 (= cell_2_2 9)))
 (let (($x603 (= cell_2_2 8)))
 (let (($x1313 (= cell_2_2 7)))
 (let (($x2010 (= cell_2_2 6)))
 (let (($x310 (= cell_2_2 5)))
 (let (($x1445 (= cell_2_2 4)))
 (let (($x486 (= cell_2_2 3)))
 (let (($x2807 (= cell_2_2 2)))
 (let (($x2172 (= cell_2_2 1)))
 (or $x2172 $x2807 $x486 $x1445 $x310 $x2010 $x1313 $x603 $x517)))))))))))
(assert
 (let (($x2862 (= cell_3_2 9)))
 (let (($x604 (= cell_3_2 8)))
 (let (($x820 (= cell_3_2 7)))
 (let (($x1879 (= cell_3_2 6)))
 (let (($x925 (= cell_3_2 5)))
 (let (($x318 (= cell_3_2 4)))
 (let (($x2292 (= cell_3_2 3)))
 (let (($x975 (= cell_3_2 2)))
 (let (($x353 (= cell_3_2 1)))
 (or $x353 $x975 $x2292 $x318 $x925 $x1879 $x820 $x604 $x2862)))))))))))
(assert
 (let (($x1904 (= cell_4_2 9)))
 (let (($x758 (= cell_4_2 8)))
 (let (($x3011 (= cell_4_2 7)))
 (let (($x2118 (= cell_4_2 6)))
 (let (($x1427 (= cell_4_2 5)))
 (let (($x2301 (= cell_4_2 4)))
 (let (($x1258 (= cell_4_2 3)))
 (let (($x181 (= cell_4_2 2)))
 (let (($x2813 (= cell_4_2 1)))
 (or $x2813 $x181 $x1258 $x2301 $x1427 $x2118 $x3011 $x758 $x1904)))))))))))
(assert
 (let (($x28 (= cell_5_2 9)))
 (let (($x505 (= cell_5_2 8)))
 (let (($x2049 (= cell_5_2 7)))
 (let (($x2422 (= cell_5_2 6)))
 (let (($x3167 (= cell_5_2 5)))
 (let (($x569 (= cell_5_2 4)))
 (let (($x2919 (= cell_5_2 3)))
 (let (($x860 (= cell_5_2 2)))
 (let (($x527 (= cell_5_2 1)))
 (or $x527 $x860 $x2919 $x569 $x3167 $x2422 $x2049 $x505 $x28)))))))))))
(assert
 (let (($x2012 (= cell_6_2 9)))
 (let (($x835 (= cell_6_2 8)))
 (let (($x331 (= cell_6_2 7)))
 (let (($x825 (= cell_6_2 6)))
 (let (($x2162 (= cell_6_2 5)))
 (let (($x669 (= cell_6_2 4)))
 (let (($x391 (= cell_6_2 3)))
 (let (($x1314 (= cell_6_2 2)))
 (let (($x400 (= cell_6_2 1)))
 (or $x400 $x1314 $x391 $x669 $x2162 $x825 $x331 $x835 $x2012)))))))))))
(assert
 (let (($x2860 (= cell_7_2 9)))
 (let (($x3196 (= cell_7_2 8)))
 (let (($x2009 (= cell_7_2 7)))
 (let (($x1346 (= cell_7_2 6)))
 (let (($x1194 (= cell_7_2 5)))
 (let (($x1575 (= cell_7_2 4)))
 (let (($x2918 (= cell_7_2 3)))
 (let (($x928 (= cell_7_2 2)))
 (let (($x1169 (= cell_7_2 1)))
 (or $x1169 $x928 $x2918 $x1575 $x1194 $x1346 $x2009 $x3196 $x2860)))))))))))
(assert
 (let (($x1332 (= cell_8_2 1)))
 (or $x1332 (= cell_8_2 2) (= cell_8_2 3) (= cell_8_2 4) (= cell_8_2 5) (= cell_8_2 6) (= cell_8_2 7) (= cell_8_2 8) (= cell_8_2 9))))
(assert
 (let (($x412 (= cell_9_2 9)))
 (let (($x533 (= cell_9_2 8)))
 (let (($x3009 (= cell_9_2 7)))
 (let (($x3217 (= cell_9_2 6)))
 (let (($x2348 (= cell_9_2 5)))
 (let (($x274 (= cell_9_2 4)))
 (let (($x2219 (= cell_9_2 3)))
 (let (($x352 (= cell_9_2 2)))
 (let (($x2209 (= cell_9_2 1)))
 (or $x2209 $x352 $x2219 $x274 $x2348 $x3217 $x3009 $x533 $x412)))))))))))
(assert
 (let (($x2350 (= cell_1_3 1)))
 (or $x2350 (= cell_1_3 2) (= cell_1_3 3) (= cell_1_3 4) (= cell_1_3 5) (= cell_1_3 6) (= cell_1_3 7) (= cell_1_3 8) (= cell_1_3 9))))
(assert
 (let (($x312 (= cell_2_3 9)))
 (let (($x2767 (= cell_2_3 8)))
 (let (($x1122 (= cell_2_3 7)))
 (let (($x1191 (= cell_2_3 6)))
 (let (($x2611 (= cell_2_3 5)))
 (let (($x2986 (= cell_2_3 4)))
 (let (($x1761 (= cell_2_3 3)))
 (let (($x336 (= cell_2_3 2)))
 (let (($x677 (= cell_2_3 1)))
 (or $x677 $x336 $x1761 $x2986 $x2611 $x1191 $x1122 $x2767 $x312)))))))))))
(assert
 (let (($x1767 (= cell_3_3 2)))
 (or (= cell_3_3 1) $x1767 (= cell_3_3 3) (= cell_3_3 4) (= cell_3_3 5) (= cell_3_3 6) (= cell_3_3 7) (= cell_3_3 8) (= cell_3_3 9))))
(assert
 (let (($x2405 (= cell_4_3 9)))
 (let (($x2633 (= cell_4_3 8)))
 (let (($x434 (= cell_4_3 7)))
 (let (($x1605 (= cell_4_3 6)))
 (let (($x122 (= cell_4_3 5)))
 (let (($x1148 (= cell_4_3 4)))
 (let (($x2424 (= cell_4_3 3)))
 (let (($x692 (= cell_4_3 2)))
 (let (($x3194 (= cell_4_3 1)))
 (or $x3194 $x692 $x2424 $x1148 $x122 $x1605 $x434 $x2633 $x2405)))))))))))
(assert
 (let (($x2865 (= cell_5_3 9)))
 (let (($x2359 (= cell_5_3 8)))
 (let (($x2840 (= cell_5_3 7)))
 (let (($x1882 (= cell_5_3 6)))
 (let (($x3163 (= cell_5_3 5)))
 (let (($x818 (= cell_5_3 4)))
 (let (($x421 (= cell_5_3 3)))
 (let (($x2294 (= cell_5_3 2)))
 (let (($x3034 (= cell_5_3 1)))
 (or $x3034 $x2294 $x421 $x818 $x3163 $x1882 $x2840 $x2359 $x2865)))))))))))
(assert
 (let (($x2061 (= cell_6_3 2)))
 (let (($x946 (= cell_6_3 1)))
 (or $x946 $x2061 (= cell_6_3 3) (= cell_6_3 4) (= cell_6_3 5) (= cell_6_3 6) (= cell_6_3 7) (= cell_6_3 8) (= cell_6_3 9)))))
(assert
 (let (($x379 (= cell_7_3 9)))
 (let (($x1243 (= cell_7_3 8)))
 (let (($x2454 (= cell_7_3 7)))
 (let (($x765 (= cell_7_3 6)))
 (let (($x1001 (= cell_7_3 5)))
 (let (($x187 (= cell_7_3 4)))
 (let (($x1230 (= cell_7_3 3)))
 (let (($x3046 (= cell_7_3 2)))
 (let (($x2361 (= cell_7_3 1)))
 (or $x2361 $x3046 $x1230 $x187 $x1001 $x765 $x2454 $x1243 $x379)))))))))))
(assert
 (let (($x1516 (= cell_8_3 2)))
 (let (($x2610 (= cell_8_3 1)))
 (or $x2610 $x1516 (= cell_8_3 3) (= cell_8_3 4) (= cell_8_3 5) (= cell_8_3 6) (= cell_8_3 7) (= cell_8_3 8) (= cell_8_3 9)))))
(assert
 (let (($x2128 (= cell_9_3 9)))
 (let (($x332 (= cell_9_3 8)))
 (let (($x625 (= cell_9_3 7)))
 (let (($x482 (= cell_9_3 6)))
 (let (($x2826 (= cell_9_3 5)))
 (let (($x1971 (= cell_9_3 4)))
 (let (($x1391 (= cell_9_3 3)))
 (let (($x2479 (= cell_9_3 2)))
 (let (($x1216 (= cell_9_3 1)))
 (or $x1216 $x2479 $x1391 $x1971 $x2826 $x482 $x625 $x332 $x2128)))))))))))
(assert
 (let (($x1831 (= cell_1_4 9)))
 (let (($x2870 (= cell_1_4 8)))
 (let (($x2564 (= cell_1_4 7)))
 (let (($x2588 (= cell_1_4 6)))
 (let (($x3131 (= cell_1_4 5)))
 (let (($x1631 (= cell_1_4 4)))
 (let (($x1227 (= cell_1_4 3)))
 (let (($x712 (= cell_1_4 2)))
 (let (($x2069 (= cell_1_4 1)))
 (or $x2069 $x712 $x1227 $x1631 $x3131 $x2588 $x2564 $x2870 $x1831)))))))))))
(assert
 (let (($x1953 (= cell_2_4 9)))
 (let (($x377 (= cell_2_4 8)))
 (let (($x1494 (= cell_2_4 7)))
 (let (($x1920 (= cell_2_4 6)))
 (let (($x1094 (= cell_2_4 5)))
 (let (($x4049 (= cell_2_4 4)))
 (let (($x1913 (= cell_2_4 3)))
 (let (($x1979 (= cell_2_4 2)))
 (let (($x2188 (= cell_2_4 1)))
 (or $x2188 $x1979 $x1913 $x4049 $x1094 $x1920 $x1494 $x377 $x1953)))))))))))
(assert
 (let (($x1474 (= cell_3_4 9)))
 (let (($x956 (= cell_3_4 8)))
 (let (($x2230 (= cell_3_4 7)))
 (let (($x909 (= cell_3_4 6)))
 (let (($x2784 (= cell_3_4 5)))
 (let (($x1923 (= cell_3_4 4)))
 (let (($x3193 (= cell_3_4 3)))
 (let (($x3062 (= cell_3_4 2)))
 (let (($x478 (= cell_3_4 1)))
 (or $x478 $x3062 $x3193 $x1923 $x2784 $x909 $x2230 $x956 $x1474)))))))))))
(assert
 (let (($x428 (= cell_4_4 2)))
 (or (= cell_4_4 1) $x428 (= cell_4_4 3) (= cell_4_4 4) (= cell_4_4 5) (= cell_4_4 6) (= cell_4_4 7) (= cell_4_4 8) (= cell_4_4 9))))
(assert
 (let (($x1578 (= cell_5_4 9)))
 (let (($x1235 (= cell_5_4 8)))
 (let (($x767 (= cell_5_4 7)))
 (let (($x254 (= cell_5_4 6)))
 (let (($x1002 (= cell_5_4 5)))
 (let (($x3198 (= cell_5_4 4)))
 (let (($x775 (= cell_5_4 3)))
 (let (($x960 (= cell_5_4 2)))
 (let (($x752 (= cell_5_4 1)))
 (or $x752 $x960 $x775 $x3198 $x1002 $x254 $x767 $x1235 $x1578)))))))))))
(assert
 (let (($x2343 (= cell_6_4 9)))
 (let (($x3207 (= cell_6_4 8)))
 (let (($x196 (= cell_6_4 7)))
 (let (($x2066 (= cell_6_4 6)))
 (let (($x2825 (= cell_6_4 5)))
 (let (($x1565 (= cell_6_4 4)))
 (let (($x715 (= cell_6_4 3)))
 (let (($x806 (= cell_6_4 2)))
 (let (($x2581 (= cell_6_4 1)))
 (or $x2581 $x806 $x715 $x1565 $x2825 $x2066 $x196 $x3207 $x2343)))))))))))
(assert
 (let (($x2539 (= cell_7_4 1)))
 (or $x2539 (= cell_7_4 2) (= cell_7_4 3) (= cell_7_4 4) (= cell_7_4 5) (= cell_7_4 6) (= cell_7_4 7) (= cell_7_4 8) (= cell_7_4 9))))
(assert
 (let (($x2360 (= cell_8_4 2)))
 (let (($x1704 (= cell_8_4 1)))
 (or $x1704 $x2360 (= cell_8_4 3) (= cell_8_4 4) (= cell_8_4 5) (= cell_8_4 6) (= cell_8_4 7) (= cell_8_4 8) (= cell_8_4 9)))))
(assert
 (let (($x292 (= cell_9_4 9)))
 (let (($x1959 (= cell_9_4 8)))
 (let (($x2600 (= cell_9_4 7)))
 (let (($x2961 (= cell_9_4 6)))
 (let (($x2800 (= cell_9_4 5)))
 (let (($x798 (= cell_9_4 4)))
 (let (($x2388 (= cell_9_4 3)))
 (let (($x157 (= cell_9_4 2)))
 (let (($x989 (= cell_9_4 1)))
 (or $x989 $x157 $x2388 $x798 $x2800 $x2961 $x2600 $x1959 $x292)))))))))))
(assert
 (let (($x348 (= cell_1_5 9)))
 (let (($x2646 (= cell_1_5 8)))
 (let (($x2232 (= cell_1_5 7)))
 (let (($x1889 (= cell_1_5 6)))
 (let (($x207 (= cell_1_5 5)))
 (let (($x644 (= cell_1_5 4)))
 (let (($x8 (= cell_1_5 3)))
 (let (($x2836 (= cell_1_5 2)))
 (let (($x2024 (= cell_1_5 1)))
 (or $x2024 $x2836 $x8 $x644 $x207 $x1889 $x2232 $x2646 $x348)))))))))))
(assert
 (let (($x964 (= cell_2_5 9)))
 (let (($x1685 (= cell_2_5 8)))
 (let (($x2758 (= cell_2_5 7)))
 (let (($x2284 (= cell_2_5 6)))
 (let (($x53 (= cell_2_5 5)))
 (let (($x2947 (= cell_2_5 4)))
 (let (($x1646 (= cell_2_5 3)))
 (let (($x2512 (= cell_2_5 2)))
 (let (($x2717 (= cell_2_5 1)))
 (or $x2717 $x2512 $x1646 $x2947 $x53 $x2284 $x2758 $x1685 $x964)))))))))))
(assert
 (let (($x2461 (= cell_3_5 9)))
 (let (($x513 (= cell_3_5 8)))
 (let (($x2333 (= cell_3_5 7)))
 (let (($x1426 (= cell_3_5 6)))
 (let (($x2249 (= cell_3_5 5)))
 (let (($x2603 (= cell_3_5 4)))
 (let (($x1408 (= cell_3_5 3)))
 (let (($x1259 (= cell_3_5 2)))
 (let (($x1952 (= cell_3_5 1)))
 (or $x1952 $x1259 $x1408 $x2603 $x2249 $x1426 $x2333 $x513 $x2461)))))))))))
(assert
 (let (($x12 (= cell_4_5 1)))
 (or $x12 (= cell_4_5 2) (= cell_4_5 3) (= cell_4_5 4) (= cell_4_5 5) (= cell_4_5 6) (= cell_4_5 7) (= cell_4_5 8) (= cell_4_5 9))))
(assert
 (let (($x296 (= cell_5_5 9)))
 (let (($x302 (= cell_5_5 8)))
 (let (($x1584 (= cell_5_5 7)))
 (let (($x653 (= cell_5_5 6)))
 (let (($x2279 (= cell_5_5 5)))
 (let (($x1310 (= cell_5_5 4)))
 (let (($x2465 (= cell_5_5 3)))
 (let (($x2263 (= cell_5_5 2)))
 (let (($x358 (= cell_5_5 1)))
 (or $x358 $x2263 $x2465 $x1310 $x2279 $x653 $x1584 $x302 $x296)))))))))))
(assert
 (let (($x374 (= cell_6_5 9)))
 (let (($x805 (= cell_6_5 8)))
 (let (($x2586 (= cell_6_5 7)))
 (let (($x89 (= cell_6_5 6)))
 (let (($x366 (= cell_6_5 5)))
 (let (($x1043 (= cell_6_5 4)))
 (let (($x911 (= cell_6_5 3)))
 (let (($x2296 (= cell_6_5 2)))
 (let (($x361 (= cell_6_5 1)))
 (or $x361 $x2296 $x911 $x1043 $x366 $x89 $x2586 $x805 $x374)))))))))))
(assert
 (let (($x899 (= cell_7_5 1)))
 (or $x899 (= cell_7_5 2) (= cell_7_5 3) (= cell_7_5 4) (= cell_7_5 5) (= cell_7_5 6) (= cell_7_5 7) (= cell_7_5 8) (= cell_7_5 9))))
(assert
 (let (($x2841 (= cell_8_5 1)))
 (or $x2841 (= cell_8_5 2) (= cell_8_5 3) (= cell_8_5 4) (= cell_8_5 5) (= cell_8_5 6) (= cell_8_5 7) (= cell_8_5 8) (= cell_8_5 9))))
(assert
 (let (($x1014 (= cell_9_5 9)))
 (let (($x1386 (= cell_9_5 8)))
 (let (($x369 (= cell_9_5 7)))
 (let (($x2763 (= cell_9_5 6)))
 (let (($x1985 (= cell_9_5 5)))
 (let (($x3080 (= cell_9_5 4)))
 (let (($x2143 (= cell_9_5 3)))
 (let (($x741 (= cell_9_5 2)))
 (let (($x1205 (= cell_9_5 1)))
 (or $x1205 $x741 $x2143 $x3080 $x1985 $x2763 $x369 $x1386 $x1014)))))))))))
(assert
 (let (($x2816 (= cell_1_6 2)))
 (or (= cell_1_6 1) $x2816 (= cell_1_6 3) (= cell_1_6 4) (= cell_1_6 5) (= cell_1_6 6) (= cell_1_6 7) (= cell_1_6 8) (= cell_1_6 9))))
(assert
 (let (($x1933 (= cell_2_6 1)))
 (or $x1933 (= cell_2_6 2) (= cell_2_6 3) (= cell_2_6 4) (= cell_2_6 5) (= cell_2_6 6) (= cell_2_6 7) (= cell_2_6 8) (= cell_2_6 9))))
(assert
 (let (($x396 (= cell_3_6 9)))
 (let (($x744 (= cell_3_6 8)))
 (let (($x3000 (= cell_3_6 7)))
 (let (($x2114 (= cell_3_6 6)))
 (let (($x2554 (= cell_3_6 5)))
 (let (($x588 (= cell_3_6 4)))
 (let (($x1851 (= cell_3_6 3)))
 (let (($x2636 (= cell_3_6 2)))
 (let (($x56 (= cell_3_6 1)))
 (or $x56 $x2636 $x1851 $x588 $x2554 $x2114 $x3000 $x744 $x396)))))))))))
(assert
 (let (($x2897 (= cell_4_6 2)))
 (let (($x2026 (= cell_4_6 1)))
 (or $x2026 $x2897 (= cell_4_6 3) (= cell_4_6 4) (= cell_4_6 5) (= cell_4_6 6) (= cell_4_6 7) (= cell_4_6 8) (= cell_4_6 9)))))
(assert
 (let (($x2666 (= cell_5_6 9)))
 (let (($x1163 (= cell_5_6 8)))
 (let (($x2379 (= cell_5_6 7)))
 (let (($x1182 (= cell_5_6 6)))
 (let (($x1943 (= cell_5_6 5)))
 (let (($x1709 (= cell_5_6 4)))
 (let (($x1548 (= cell_5_6 3)))
 (let (($x37 (= cell_5_6 2)))
 (let (($x2344 (= cell_5_6 1)))
 (or $x2344 $x37 $x1548 $x1709 $x1943 $x1182 $x2379 $x1163 $x2666)))))))))))
(assert
 (let (($x1252 (= cell_6_6 2)))
 (let (($x2075 (= cell_6_6 1)))
 (or $x2075 $x1252 (= cell_6_6 3) (= cell_6_6 4) (= cell_6_6 5) (= cell_6_6 6) (= cell_6_6 7) (= cell_6_6 8) (= cell_6_6 9)))))
(assert
 (let (($x1832 (= cell_7_6 2)))
 (let (($x1658 (= cell_7_6 1)))
 (or $x1658 $x1832 (= cell_7_6 3) (= cell_7_6 4) (= cell_7_6 5) (= cell_7_6 6) (= cell_7_6 7) (= cell_7_6 8) (= cell_7_6 9)))))
(assert
 (let (($x2183 (= cell_8_6 2)))
 (let (($x1128 (= cell_8_6 1)))
 (or $x1128 $x2183 (= cell_8_6 3) (= cell_8_6 4) (= cell_8_6 5) (= cell_8_6 6) (= cell_8_6 7) (= cell_8_6 8) (= cell_8_6 9)))))
(assert
 (let (($x6 (= cell_9_6 9)))
 (let (($x1662 (= cell_9_6 8)))
 (let (($x1569 (= cell_9_6 7)))
 (let (($x557 (= cell_9_6 6)))
 (let (($x1765 (= cell_9_6 5)))
 (let (($x1969 (= cell_9_6 4)))
 (let (($x1659 (= cell_9_6 3)))
 (let (($x2559 (= cell_9_6 2)))
 (let (($x2684 (= cell_9_6 1)))
 (or $x2684 $x2559 $x1659 $x1969 $x1765 $x557 $x1569 $x1662 $x6)))))))))))
(assert
 (let (($x1981 (= cell_1_7 9)))
 (let (($x2796 (= cell_1_7 8)))
 (let (($x1741 (= cell_1_7 7)))
 (let (($x52 (= cell_1_7 6)))
 (let (($x935 (= cell_1_7 5)))
 (let (($x2235 (= cell_1_7 4)))
 (let (($x1566 (= cell_1_7 3)))
 (let (($x1317 (= cell_1_7 2)))
 (let (($x2928 (= cell_1_7 1)))
 (or $x2928 $x1317 $x1566 $x2235 $x935 $x52 $x1741 $x2796 $x1981)))))))))))
(assert
 (let (($x1622 (= cell_2_7 9)))
 (let (($x605 (= cell_2_7 8)))
 (let (($x1422 (= cell_2_7 7)))
 (let (($x1689 (= cell_2_7 6)))
 (let (($x850 (= cell_2_7 5)))
 (let (($x2881 (= cell_2_7 4)))
 (let (($x1508 (= cell_2_7 3)))
 (let (($x1750 (= cell_2_7 2)))
 (let (($x2820 (= cell_2_7 1)))
 (or $x2820 $x1750 $x1508 $x2881 $x850 $x1689 $x1422 $x605 $x1622)))))))))))
(assert
 (let (($x2060 (= cell_3_7 9)))
 (let (($x1571 (= cell_3_7 8)))
 (let (($x2854 (= cell_3_7 7)))
 (let (($x2340 (= cell_3_7 6)))
 (let (($x1657 (= cell_3_7 5)))
 (let (($x1946 (= cell_3_7 4)))
 (let (($x1968 (= cell_3_7 3)))
 (let (($x793 (= cell_3_7 2)))
 (let (($x618 (= cell_3_7 1)))
 (or $x618 $x793 $x1968 $x1946 $x1657 $x2340 $x2854 $x1571 $x2060)))))))))))
(assert
 (let (($x2526 (= cell_4_7 9)))
 (let (($x3157 (= cell_4_7 8)))
 (let (($x2328 (= cell_4_7 7)))
 (let (($x1253 (= cell_4_7 6)))
 (let (($x873 (= cell_4_7 5)))
 (let (($x1591 (= cell_4_7 4)))
 (let (($x74 (= cell_4_7 3)))
 (let (($x426 (= cell_4_7 2)))
 (let (($x2562 (= cell_4_7 1)))
 (or $x2562 $x426 $x74 $x1591 $x873 $x1253 $x2328 $x3157 $x2526)))))))))))
(assert
 (let (($x606 (= cell_5_7 9)))
 (let (($x887 (= cell_5_7 8)))
 (let (($x2453 (= cell_5_7 7)))
 (let (($x57 (= cell_5_7 6)))
 (let (($x1987 (= cell_5_7 5)))
 (let (($x2647 (= cell_5_7 4)))
 (let (($x459 (= cell_5_7 3)))
 (let (($x1512 (= cell_5_7 2)))
 (let (($x2121 (= cell_5_7 1)))
 (or $x2121 $x1512 $x459 $x2647 $x1987 $x57 $x2453 $x887 $x606)))))))))))
(assert
 (let (($x3153 (= cell_6_7 9)))
 (let (($x1383 (= cell_6_7 8)))
 (let (($x1743 (= cell_6_7 7)))
 (let (($x1141 (= cell_6_7 6)))
 (let (($x2462 (= cell_6_7 5)))
 (let (($x1299 (= cell_6_7 4)))
 (let (($x1062 (= cell_6_7 3)))
 (let (($x3098 (= cell_6_7 2)))
 (let (($x2750 (= cell_6_7 1)))
 (or $x2750 $x3098 $x1062 $x1299 $x2462 $x1141 $x1743 $x1383 $x3153)))))))))))
(assert
 (let (($x1098 (= cell_7_7 9)))
 (let (($x3168 (= cell_7_7 8)))
 (let (($x1173 (= cell_7_7 7)))
 (let (($x657 (= cell_7_7 6)))
 (let (($x81 (= cell_7_7 5)))
 (let (($x2148 (= cell_7_7 4)))
 (let (($x3156 (= cell_7_7 3)))
 (let (($x2718 (= cell_7_7 2)))
 (let (($x1910 (= cell_7_7 1)))
 (or $x1910 $x2718 $x3156 $x2148 $x81 $x657 $x1173 $x3168 $x1098)))))))))))
(assert
 (let (($x1176 (= cell_8_7 9)))
 (let (($x1048 (= cell_8_7 8)))
 (let (($x1379 (= cell_8_7 7)))
 (let (($x1071 (= cell_8_7 6)))
 (let (($x2694 (= cell_8_7 5)))
 (let (($x383 (= cell_8_7 4)))
 (let (($x2731 (= cell_8_7 3)))
 (let (($x1059 (= cell_8_7 2)))
 (let (($x2146 (= cell_8_7 1)))
 (or $x2146 $x1059 $x2731 $x383 $x2694 $x1071 $x1379 $x1048 $x1176)))))))))))
(assert
 (let (($x1675 (= cell_9_7 1)))
 (or $x1675 (= cell_9_7 2) (= cell_9_7 3) (= cell_9_7 4) (= cell_9_7 5) (= cell_9_7 6) (= cell_9_7 7) (= cell_9_7 8) (= cell_9_7 9))))
(assert
 (let (($x282 (= cell_1_8 9)))
 (let (($x1961 (= cell_1_8 8)))
 (let (($x2630 (= cell_1_8 7)))
 (let (($x1421 (= cell_1_8 6)))
 (let (($x1131 (= cell_1_8 5)))
 (let (($x1353 (= cell_1_8 4)))
 (let (($x92 (= cell_1_8 3)))
 (let (($x1307 (= cell_1_8 2)))
 (let (($x764 (= cell_1_8 1)))
 (or $x764 $x1307 $x92 $x1353 $x1131 $x1421 $x2630 $x1961 $x282)))))))))))
(assert
 (let (($x3001 (= cell_2_8 2)))
 (or (= cell_2_8 1) $x3001 (= cell_2_8 3) (= cell_2_8 4) (= cell_2_8 5) (= cell_2_8 6) (= cell_2_8 7) (= cell_2_8 8) (= cell_2_8 9))))
(assert
 (let (($x1041 (= cell_3_8 9)))
 (let (($x1108 (= cell_3_8 8)))
 (let (($x963 (= cell_3_8 7)))
 (let (($x509 (= cell_3_8 6)))
 (let (($x2667 (= cell_3_8 5)))
 (let (($x1324 (= cell_3_8 4)))
 (let (($x1806 (= cell_3_8 3)))
 (let (($x2466 (= cell_3_8 2)))
 (let (($x988 (= cell_3_8 1)))
 (or $x988 $x2466 $x1806 $x1324 $x2667 $x509 $x963 $x1108 $x1041)))))))))))
(assert
 (let (($x2676 (= cell_4_8 9)))
 (let (($x1931 (= cell_4_8 8)))
 (let (($x978 (= cell_4_8 7)))
 (let (($x799 (= cell_4_8 6)))
 (let (($x2439 (= cell_4_8 5)))
 (let (($x1018 (= cell_4_8 4)))
 (let (($x2431 (= cell_4_8 3)))
 (let (($x1934 (= cell_4_8 2)))
 (let (($x2481 (= cell_4_8 1)))
 (or $x2481 $x1934 $x2431 $x1018 $x2439 $x799 $x978 $x1931 $x2676)))))))))))
(assert
 (let (($x2640 (= cell_5_8 1)))
 (or $x2640 (= cell_5_8 2) (= cell_5_8 3) (= cell_5_8 4) (= cell_5_8 5) (= cell_5_8 6) (= cell_5_8 7) (= cell_5_8 8) (= cell_5_8 9))))
(assert
 (let (($x1509 (= cell_6_8 2)))
 (let (($x3184 (= cell_6_8 1)))
 (or $x3184 $x1509 (= cell_6_8 3) (= cell_6_8 4) (= cell_6_8 5) (= cell_6_8 6) (= cell_6_8 7) (= cell_6_8 8) (= cell_6_8 9)))))
(assert
 (let (($x50 (= cell_7_8 9)))
 (let (($x1066 (= cell_7_8 8)))
 (let (($x2321 (= cell_7_8 7)))
 (let (($x787 (= cell_7_8 6)))
 (let (($x1921 (= cell_7_8 5)))
 (let (($x536 (= cell_7_8 4)))
 (let (($x647 (= cell_7_8 3)))
 (let (($x1740 (= cell_7_8 2)))
 (let (($x2250 (= cell_7_8 1)))
 (or $x2250 $x1740 $x647 $x536 $x1921 $x787 $x2321 $x1066 $x50)))))))))))
(assert
 (let (($x1854 (= cell_8_8 9)))
 (let (($x1418 (= cell_8_8 8)))
 (let (($x885 (= cell_8_8 7)))
 (let (($x1274 (= cell_8_8 6)))
 (let (($x285 (= cell_8_8 5)))
 (let (($x884 (= cell_8_8 4)))
 (let (($x1769 (= cell_8_8 3)))
 (let (($x1518 (= cell_8_8 2)))
 (let (($x3190 (= cell_8_8 1)))
 (or $x3190 $x1518 $x1769 $x884 $x285 $x1274 $x885 $x1418 $x1854)))))))))))
(assert
 (let (($x2027 (= cell_9_8 2)))
 (let (($x2375 (= cell_9_8 1)))
 (or $x2375 $x2027 (= cell_9_8 3) (= cell_9_8 4) (= cell_9_8 5) (= cell_9_8 6) (= cell_9_8 7) (= cell_9_8 8) (= cell_9_8 9)))))
(assert
 (let (($x2289 (= cell_1_9 9)))
 (let (($x1922 (= cell_1_9 8)))
 (let (($x2977 (= cell_1_9 7)))
 (let (($x1676 (= cell_1_9 6)))
 (let (($x2278 (= cell_1_9 5)))
 (let (($x537 (= cell_1_9 4)))
 (let (($x856 (= cell_1_9 3)))
 (let (($x306 (= cell_1_9 2)))
 (let (($x1480 (= cell_1_9 1)))
 (or $x1480 $x306 $x856 $x537 $x2278 $x1676 $x2977 $x1922 $x2289)))))))))))
(assert
 (let (($x304 (= cell_2_9 9)))
 (let (($x1056 (= cell_2_9 8)))
 (let (($x3067 (= cell_2_9 7)))
 (let (($x1589 (= cell_2_9 6)))
 (let (($x1721 (= cell_2_9 5)))
 (let (($x2270 (= cell_2_9 4)))
 (let (($x2109 (= cell_2_9 3)))
 (let (($x645 (= cell_2_9 2)))
 (let (($x2890 (= cell_2_9 1)))
 (or $x2890 $x645 $x2109 $x2270 $x1721 $x1589 $x3067 $x1056 $x304)))))))))))
(assert
 (let (($x2958 (= cell_3_9 1)))
 (or $x2958 (= cell_3_9 2) (= cell_3_9 3) (= cell_3_9 4) (= cell_3_9 5) (= cell_3_9 6) (= cell_3_9 7) (= cell_3_9 8) (= cell_3_9 9))))
(assert
 (let (($x214 (= cell_4_9 9)))
 (let (($x1414 (= cell_4_9 8)))
 (let (($x3215 (= cell_4_9 7)))
 (let (($x1535 (= cell_4_9 6)))
 (let (($x3088 (= cell_4_9 5)))
 (let (($x1125 (= cell_4_9 4)))
 (let (($x2025 (= cell_4_9 3)))
 (let (($x474 (= cell_4_9 2)))
 (let (($x729 (= cell_4_9 1)))
 (or $x729 $x474 $x2025 $x1125 $x3088 $x1535 $x3215 $x1414 $x214)))))))))))
(assert
 (let (($x185 (= cell_5_9 2)))
 (let (($x945 (= cell_5_9 1)))
 (or $x945 $x185 (= cell_5_9 3) (= cell_5_9 4) (= cell_5_9 5) (= cell_5_9 6) (= cell_5_9 7) (= cell_5_9 8) (= cell_5_9 9)))))
(assert
 (let (($x3055 (= cell_6_9 2)))
 (let (($x804 (= cell_6_9 1)))
 (or $x804 $x3055 (= cell_6_9 3) (= cell_6_9 4) (= cell_6_9 5) (= cell_6_9 6) (= cell_6_9 7) (= cell_6_9 8) (= cell_6_9 9)))))
(assert
 (let (($x3127 (= cell_7_9 9)))
 (let (($x1267 (= cell_7_9 8)))
 (let (($x940 (= cell_7_9 7)))
 (let (($x499 (= cell_7_9 6)))
 (let (($x2938 (= cell_7_9 5)))
 (let (($x3204 (= cell_7_9 4)))
 (let (($x354 (= cell_7_9 3)))
 (let (($x1375 (= cell_7_9 2)))
 (let (($x573 (= cell_7_9 1)))
 (or $x573 $x1375 $x354 $x3204 $x2938 $x499 $x940 $x1267 $x3127)))))))))))
(assert
 (let (($x2978 (= cell_8_9 9)))
 (let (($x2116 (= cell_8_9 8)))
 (let (($x1266 (= cell_8_9 7)))
 (let (($x370 (= cell_8_9 6)))
 (let (($x1463 (= cell_8_9 5)))
 (let (($x1898 (= cell_8_9 4)))
 (let (($x2837 (= cell_8_9 3)))
 (let (($x413 (= cell_8_9 2)))
 (let (($x1139 (= cell_8_9 1)))
 (or $x1139 $x413 $x2837 $x1898 $x1463 $x370 $x1266 $x2116 $x2978)))))))))))
(assert
 (let (($x1859 (= cell_9_9 1)))
 (or $x1859 (= cell_9_9 2) (= cell_9_9 3) (= cell_9_9 4) (= cell_9_9 5) (= cell_9_9 6) (= cell_9_9 7) (= cell_9_9 8) (= cell_9_9 9))))
(assert
 (and (distinct cell_1_1 cell_1_2 cell_1_3 cell_1_4 cell_1_5 cell_1_6 cell_1_7 cell_1_8 cell_1_9) true))
(assert
 (and (distinct cell_2_1 cell_2_2 cell_2_3 cell_2_4 cell_2_5 cell_2_6 cell_2_7 cell_2_8 cell_2_9) true))
(assert
 (and (distinct cell_3_1 cell_3_2 cell_3_3 cell_3_4 cell_3_5 cell_3_6 cell_3_7 cell_3_8 cell_3_9) true))
(assert
 (and (distinct cell_4_1 cell_4_2 cell_4_3 cell_4_4 cell_4_5 cell_4_6 cell_4_7 cell_4_8 cell_4_9) true))
(assert
 (and (distinct cell_5_1 cell_5_2 cell_5_3 cell_5_4 cell_5_5 cell_5_6 cell_5_7 cell_5_8 cell_5_9) true))
(assert
 (and (distinct cell_6_1 cell_6_2 cell_6_3 cell_6_4 cell_6_5 cell_6_6 cell_6_7 cell_6_8 cell_6_9) true))
(assert
 (and (distinct cell_7_1 cell_7_2 cell_7_3 cell_7_4 cell_7_5 cell_7_6 cell_7_7 cell_7_8 cell_7_9) true))
(assert
 (and (distinct cell_8_1 cell_8_2 cell_8_3 cell_8_4 cell_8_5 cell_8_6 cell_8_7 cell_8_8 cell_8_9) true))
(assert
 (and (distinct cell_9_1 cell_9_2 cell_9_3 cell_9_4 cell_9_5 cell_9_6 cell_9_7 cell_9_8 cell_9_9) true))
(assert
 (and (distinct cell_1_1 cell_2_1 cell_3_1 cell_4_1 cell_5_1 cell_6_1 cell_7_1 cell_8_1 cell_9_1) true))
(assert
 (and (distinct cell_1_2 cell_2_2 cell_3_2 cell_4_2 cell_5_2 cell_6_2 cell_7_2 cell_8_2 cell_9_2) true))
(assert
 (and (distinct cell_1_3 cell_2_3 cell_3_3 cell_4_3 cell_5_3 cell_6_3 cell_7_3 cell_8_3 cell_9_3) true))
(assert
 (and (distinct cell_1_4 cell_2_4 cell_3_4 cell_4_4 cell_5_4 cell_6_4 cell_7_4 cell_8_4 cell_9_4) true))
(assert
 (and (distinct cell_1_5 cell_2_5 cell_3_5 cell_4_5 cell_5_5 cell_6_5 cell_7_5 cell_8_5 cell_9_5) true))
(assert
 (and (distinct cell_1_6 cell_2_6 cell_3_6 cell_4_6 cell_5_6 cell_6_6 cell_7_6 cell_8_6 cell_9_6) true))
(assert
 (and (distinct cell_1_7 cell_2_7 cell_3_7 cell_4_7 cell_5_7 cell_6_7 cell_7_7 cell_8_7 cell_9_7) true))
(assert
 (and (distinct cell_1_8 cell_2_8 cell_3_8 cell_4_8 cell_5_8 cell_6_8 cell_7_8 cell_8_8 cell_9_8) true))
(assert
 (and (distinct cell_1_9 cell_2_9 cell_3_9 cell_4_9 cell_5_9 cell_6_9 cell_7_9 cell_8_9 cell_9_9) true))
(assert
 (and (distinct cell_1_1 cell_1_2 cell_1_3 cell_2_1 cell_2_2 cell_2_3 cell_3_1 cell_3_2 cell_3_3) true))
(assert
 (and (distinct cell_1_4 cell_1_5 cell_1_6 cell_2_4 cell_2_5 cell_2_6 cell_3_4 cell_3_5 cell_3_6) true))
(assert
 (and (distinct cell_1_7 cell_1_8 cell_1_9 cell_2_7 cell_2_8 cell_2_9 cell_3_7 cell_3_8 cell_3_9) true))
(assert
 (and (distinct cell_4_1 cell_4_2 cell_4_3 cell_5_1 cell_5_2 cell_5_3 cell_6_1 cell_6_2 cell_6_3) true))
(assert
 (and (distinct cell_4_4 cell_4_5 cell_4_6 cell_5_4 cell_5_5 cell_5_6 cell_6_4 cell_6_5 cell_6_6) true))
(assert
 (and (distinct cell_4_7 cell_4_8 cell_4_9 cell_5_7 cell_5_8 cell_5_9 cell_6_7 cell_6_8 cell_6_9) true))
(assert
 (and (distinct cell_7_1 cell_7_2 cell_7_3 cell_8_1 cell_8_2 cell_8_3 cell_9_1 cell_9_2 cell_9_3) true))
(assert
 (and (distinct cell_7_4 cell_7_5 cell_7_6 cell_8_4 cell_8_5 cell_8_6 cell_9_4 cell_9_5 cell_9_6) true))
(assert
 (and (distinct cell_7_7 cell_7_8 cell_7_9 cell_8_7 cell_8_8 cell_8_9 cell_9_7 cell_9_8 cell_9_9) true))
(assert
 (let (($x1404 (and (distinct cell_5_9 cell_6_8 cell_7_7 cell_8_6) true)))
 (let (($x2147 (and (distinct cell_2_9 cell_3_8 cell_4_7 cell_5_6 cell_6_5 cell_7_4 cell_8_3 cell_9_2) true)))
 (let (($x1070 (and (distinct cell_1_8 cell_2_7 cell_3_6 cell_4_5 cell_5_4 cell_6_3 cell_7_2 cell_8_1) true)))
 (let (($x2273 (and (distinct cell_1_5 cell_2_4 cell_3_3 cell_4_2) true)))
 (let (($x2602 (and (distinct cell_5_1 cell_6_2 cell_7_3 cell_8_4) true)))
 (let (($x1699 (and (distinct cell_2_1 cell_3_2 cell_4_3 cell_5_4 cell_6_5 cell_7_6 cell_8_7 cell_9_8) true)))
 (let (($x2205 (and (distinct cell_1_2 cell_2_3 cell_3_4 cell_4_5 cell_5_6 cell_6_7 cell_7_8 cell_8_9) true)))
 (let (($x3129 (and (distinct cell_1_5 cell_2_6 cell_3_7 cell_4_8) true)))
 (and $x3129 $x2205 $x1699 $x2602 $x2273 $x1070 $x2147 $x1404))))))))))
(assert
 (= cell_6_9 2))
(check-sat)
